branch-and-cut/resultados/B/b11.sol
88
26
65 49
54 28
22 17
65 64
65 73
31 71
51 64
24 59
44 65
22 34
12 42
56 51
28 56
22 48
59 68
20 30
17 71
75 64
22 24
27 75
30 65
42 73
53 51
35 73
65 74
30 31
